\ LP format - for model browsing. Use MPS format to capture full model detail.
Minimize
  y
Subject To
 c_0: x_0 + x_1 + x_2 >= 1
 c_1: x_3 + x_4 + x_5 >= 1
 c_2: x_6 + x_7 + x_8 >= 1
 l_0: 4.95426 x_0 + 3.59737 x_3 + 6.9316 x_6 - y <= 0
 l_1: 6.22549 x_1 + 1.27108 x_4 + 4.08419 x_7 - y <= 0
 l_2: 3.47764 x_2 + 7.07378 x_5 + 4.04109 x_8 - y <= 0
Bounds
 x_0 <= 1
 x_1 <= 1
 x_2 <= 1
 x_3 <= 1
 x_4 <= 1
 x_5 <= 1
 x_6 <= 1
 x_7 <= 1
 x_8 <= 1
End
